RT is False
Default write of storage_offers_DA.csv just to have a file (but constraint should be inactive)
Reading model...
...model read.
creating competitive generators file...
...competitive generators recorded.
Loading data...
.. day-ahead data with real-time VRE data read.
Compiling instance...
...instance created.
Creating Offer Mitigation (model will solve as dispatch if TRUE)...
Solving...

Welcome to IBM(R) ILOG(R) CPLEX(R) Interactive Optimizer 12.8.0.0
  with Simplex, Mixed Integer & Barrier Optimizers
5725-A06 5725-A29 5724-Y48 5724-Y49 5724-Y54 5724-Y55 5655-Y21
Copyright IBM Corp. 1988, 2017.  All Rights Reserved.

Type 'help' for a list of available commands.
Type 'help' followed by a command name for more
information on commands.

CPLEX> Logfile 'cplex.log' closed.
Logfile 'C:\Users\llavi\Desktop\test919\logs\tmpl3d5br7o.cplex.log' open.
CPLEX> New value for parallel optimization mode: -1
CPLEX> New value for mixed integer optimality gap tolerance: 0.01
CPLEX> New value for integrality tolerance: 1e-09
CPLEX> New value for feasibility tolerance: 0.01
CPLEX> New value for deterministic time limit in ticks: 75000
CPLEX> Problem 'C:\Users\llavi\Desktop\test919\logs\tmprnwm110w.pyomo.lp' read.
Read time = 0.09 sec. (3.03 ticks)
CPLEX> Problem name         : C:\Users\llavi\Desktop\test919\logs\tmprnwm110w.pyomo.lp
Objective sense      : Minimize
Variables            :   26465  [Nneg: 1,  Box: 22000,  Free: 4464]
Objective nonzeros   :    2496
Linear constraints   :   27515  [Less: 14006,  Greater: 4416,  Equal: 9093]
  Nonzeros           :   89171
  RHS nonzeros       :   12271

Variables            : Min LB: -5000.000        Max UB: 1000000.       
Objective nonzeros   : Min   : 15.73158         Max   : 124.0997       
Linear constraints   :
  Nonzeros           : Min   : 0.8500000        Max   : 3000.000       
  RHS nonzeros       : Min   : 0.4000000        Max   : 5000.000       
CPLEX> CPXPARAM_Simplex_Tolerances_Feasibility          0.01
CPXPARAM_Parallel                                -1
CPXPARAM_DetTimeLimit                            75000
CPXPARAM_MIP_Tolerances_MIPGap                   0.01
CPXPARAM_MIP_Tolerances_Integrality              1.0000000000000001e-09
Parallel mode: opportunistic, using up to 4 threads for concurrent optimization.
Tried aggregator 1 time.
LP Presolve eliminated 21401 rows and 15895 columns.
Aggregator did 722 substitutions.
Reduced LP has 5392 rows, 9848 columns, and 31764 nonzeros.
Presolve time = 0.05 sec. (22.46 ticks)

Iteration log . . .
Iteration:     1   Dual objective     =             0.000000
Perturbation started.
Iteration:   101   Dual objective     =             0.000000
Iteration:   359   Dual objective     =             1.352479
Iteration:   630   Dual objective     =             1.976487
Iteration:   955   Dual objective     =             2.153574
Iteration:  1150   Dual objective     =             2.275195
Iteration:  1505   Dual objective     =             2.330843
Iteration:  1800   Dual objective     =             2.360242
Iteration:  2109   Dual objective     =             2.383262
Iteration:  2412   Dual objective     =             2.399050
Iteration:  2709   Dual objective     =             2.410421
Iteration:  3082   Dual objective     =             2.423790
Iteration:  3497   Dual objective     =          3045.374428
Iteration:  3844   Dual objective     =         18541.323148
Iteration:  4183   Dual objective     =         44927.931246
Removing perturbation.

Dual simplex solved model.


Dual simplex - Optimal:  Objective =  5.0785898857e+04
Solution time =    0.19 sec.  Iterations = 4594 (0)
Deterministic time = 97.65 ticks  (519.41 ticks/sec)

CPLEX> Solution written to file 'C:\Users\llavi\Desktop\test919\logs\tmpxmhe6e79.cplex.sol'.
CPLEX> Exporting results... 
...storage offer mitigation file created
Converting model to MPEC...
...converted
NOTE: initial MIP solve with only storage competitive to get feasible solution
Solving...

Welcome to IBM(R) ILOG(R) CPLEX(R) Interactive Optimizer 12.8.0.0
  with Simplex, Mixed Integer & Barrier Optimizers
5725-A06 5725-A29 5724-Y48 5724-Y49 5724-Y54 5724-Y55 5655-Y21
Copyright IBM Corp. 1988, 2017.  All Rights Reserved.

Type 'help' for a list of available commands.
Type 'help' followed by a command name for more
information on commands.

CPLEX> Logfile 'cplex.log' closed.
Logfile 'C:\Users\llavi\Desktop\test919\logs\tmpk_dhcr5d.cplex.log' open.
CPLEX> New value for parallel optimization mode: -1
CPLEX> New value for mixed integer optimality gap tolerance: 0.01
CPLEX> New value for integrality tolerance: 1e-09
CPLEX> New value for feasibility tolerance: 0.01
CPLEX> New value for deterministic time limit in ticks: 75000
CPLEX> Problem 'C:\Users\llavi\Desktop\test919\logs\tmp4hjo2l_v.pyomo.lp' read.
Read time = 0.25 sec. (13.96 ticks)
CPLEX> Problem name         : C:\Users\llavi\Desktop\test919\logs\tmp4hjo2l_v.pyomo.lp
Objective sense      : Maximize
Variables            :   53805  [Nneg: 1,  Box: 22000,  Free: 4464,
                                 Binary: 27340]
Objective nonzeros   :    9078
Linear constraints   :  123205  [Less: 41346,  Greater: 59096,  Equal: 22763]
  Nonzeros           :  291705
  RHS nonzeros       :   67423

Variables            : Min LB: -5000.000        Max UB: 1000000.       
Objective nonzeros   : Min   : 0.4000000        Max   : 2500.000       
Linear constraints   :
  Nonzeros           : Min   : 0.4000000        Max   : 1000000.       
  RHS nonzeros       : Min   : 0.4000000        Max   : 1000000.       
CPLEX> CPXPARAM_Simplex_Tolerances_Feasibility          0.01
CPXPARAM_Parallel                                -1
CPXPARAM_DetTimeLimit                            75000
CPXPARAM_MIP_Tolerances_MIPGap                   0.01
CPXPARAM_MIP_Tolerances_Integrality              1.0000000000000001e-09
Tried aggregator 3 times.
MIP Presolve eliminated 88653 rows and 19001 columns.
MIP Presolve added 3355 rows and 0 columns.
MIP Presolve modified 23889 coefficients.
Aggregator did 12966 substitutions.
Reduced MIP has 24941 rows, 21282 columns, and 71096 nonzeros.
Reduced MIP has 8423 binaries, 0 generals, 0 SOSs, and 0 indicators.
Presolve time = 0.28 sec. (165.25 ticks)
Probing fixed 380 vars, tightened 2884 bounds.
Probing time = 3.09 sec. (890.48 ticks)
Tried aggregator 2 times.
MIP Presolve eliminated 863 rows and 762 columns.
MIP Presolve modified 2235 coefficients.
Aggregator did 36 substitutions.
Reduced MIP has 24042 rows, 20484 columns, and 68500 nonzeros.
Reduced MIP has 8042 binaries, 0 generals, 0 SOSs, and 0 indicators.
Presolve time = 0.11 sec. (53.59 ticks)
Probing time = 0.05 sec. (15.13 ticks)
Clique table members: 6498.
MIP emphasis: balance optimality and feasibility.
MIP search method: dynamic search.
Parallel mode: opportunistic, using up to 4 threads.
Root relaxation solution time = 0.45 sec. (436.42 ticks)

        Nodes                                         Cuts/
   Node  Left     Objective  IInf  Best Integer    Best Bound    ItCnt     Gap

      0     0        0.0000   616                      0.0000     2674         
*     0+    0                            0.0000        0.0000             0.00%
      0     0        cutoff              0.0000        0.0000     2674    0.00%
Elapsed time = 5.14 sec. (1924.57 ticks, tree = 0.01 MB, solutions = 1)

Root node processing (before b&c):
  Real time             =    5.16 sec. (1926.84 ticks)
Parallel b&c, 4 threads:
  Real time             =    0.00 sec. (0.00 ticks)
  Sync time (average)   =    0.00 sec.
  Wait time (average)   =    0.00 sec.
                          ------------
Total (root+branch&cut) =    5.16 sec. (1926.84 ticks)

Solution pool: 1 solution saved.

MIP - Integer optimal solution:  Objective =  2.0627339836e-09
Solution time =    5.17 sec.  Iterations = 2674  Nodes = 0
Deterministic time = 1926.99 ticks  (372.58 ticks/sec)

CPLEX> Incumbent solution written to file 'C:\Users\llavi\Desktop\test919\logs\tmpzuxlu2br.cplex.sol'.
CPLEX> NOTE: no warmstart specified for MIP iteration, default behavior is true
NOTE: resolving with all competitive generators using storage-only solution to warmstart
Solving...

Welcome to IBM(R) ILOG(R) CPLEX(R) Interactive Optimizer 12.8.0.0
  with Simplex, Mixed Integer & Barrier Optimizers
5725-A06 5725-A29 5724-Y48 5724-Y49 5724-Y54 5724-Y55 5655-Y21
Copyright IBM Corp. 1988, 2017.  All Rights Reserved.

Type 'help' for a list of available commands.
Type 'help' followed by a command name for more
information on commands.

CPLEX> Logfile 'cplex.log' closed.
Logfile 'C:\Users\llavi\Desktop\test919\logs\tmpe18p83zj.cplex.log' open.
CPLEX> New value for parallel optimization mode: -1
CPLEX> New value for mixed integer optimality gap tolerance: 0.01
CPLEX> New value for integrality tolerance: 1e-09
CPLEX> New value for feasibility tolerance: 0.01
CPLEX> New value for deterministic time limit in ticks: 75000
CPLEX> Problem 'C:\Users\llavi\Desktop\test919\logs\tmppcfkzz2u.pyomo.lp' read.
Read time = 0.28 sec. (13.98 ticks)
CPLEX> MIP start file 'C:\Users\llavi\Desktop\test919\logs\tmpb21kusig.cplex.mst' read.
CPLEX> Problem name         : C:\Users\llavi\Desktop\test919\logs\tmppcfkzz2u.pyomo.lp
Objective sense      : Maximize
Variables            :   54525  [Nneg: 1,  Box: 22720,  Free: 4464,
                                 Binary: 27340]
Objective nonzeros   :    9774
Linear constraints   :  123205  [Less: 41346,  Greater: 59096,  Equal: 22763]
  Nonzeros           :  291705
  RHS nonzeros       :   67423

Variables            : Min LB: -5000.000        Max UB: 1000000.       
Objective nonzeros   : Min   : 0.4000000        Max   : 2500.000       
Linear constraints   :
  Nonzeros           : Min   : 0.4000000        Max   : 1000000.       
  RHS nonzeros       : Min   : 0.4000000        Max   : 1000000.       
CPLEX> CPXPARAM_Simplex_Tolerances_Feasibility          0.01
CPXPARAM_Parallel                                -1
CPXPARAM_DetTimeLimit                            75000
CPXPARAM_MIP_Tolerances_MIPGap                   0.01
CPXPARAM_MIP_Tolerances_Integrality              1.0000000000000001e-09
Warning:  No solution found from 1 MIP starts.
Retaining values of one MIP start for possible repair.
Tried aggregator 3 times.
MIP Presolve eliminated 88653 rows and 19721 columns.
MIP Presolve added 3355 rows and 0 columns.
MIP Presolve modified 23889 coefficients.
Aggregator did 12966 substitutions.
Reduced MIP has 24941 rows, 21282 columns, and 71096 nonzeros.
Reduced MIP has 8423 binaries, 0 generals, 0 SOSs, and 0 indicators.
Presolve time = 0.22 sec. (165.61 ticks)
Probing fixed 380 vars, tightened 2884 bounds.
Probing time = 3.13 sec. (890.48 ticks)
Tried aggregator 2 times.
MIP Presolve eliminated 863 rows and 762 columns.
MIP Presolve modified 2235 coefficients.
Aggregator did 36 substitutions.
Reduced MIP has 24042 rows, 20484 columns, and 68500 nonzeros.
Reduced MIP has 8042 binaries, 0 generals, 0 SOSs, and 0 indicators.
Presolve time = 0.14 sec. (53.75 ticks)
Probing time = 0.06 sec. (15.13 ticks)
Clique table members: 6498.
MIP emphasis: balance optimality and feasibility.
MIP search method: dynamic search.
Parallel mode: opportunistic, using up to 4 threads.
Root relaxation solution time = 0.50 sec. (493.48 ticks)

        Nodes                                         Cuts/
   Node  Left     Objective  IInf  Best Integer    Best Bound    ItCnt     Gap

      0     0   160982.4981   799                 160982.4981     2671         
      0     0   157229.2969   680                   Cuts: 691     2969         
      0     0   156413.1226   641                   Cuts: 276     3151         
      0     0   156260.9810   575                   Cuts: 160     3257         
      0     0   156256.9579   522                   Cuts: 126     3305         
      0     0   156256.9579   502                   Cuts: 102     3358         
      0     0   156256.9579   474                    Cuts: 71     3390         
      0     0   156256.9579   465                    Cuts: 71     3410         
      0     0   156256.9579   456                    Cuts: 32     3417         
      0     0   156256.9579   454                    Cuts: 31     3420         
      0     0   156256.9579   453                    Cuts: 25     3422         
Repair heuristic found nothing.
      0     2   156256.9579   453                 156256.9579     3422         
Elapsed time = 29.20 sec. (10330.83 ticks, tree = 0.03 MB, solutions = 0)
     73    39    79025.2329   338                 154333.1004     4651         
    144    72    74590.7047   318                 154333.1004     6291         
    205   122    47672.4727   306                 154333.1004     6869         
    285   176    infeasible                       154333.1004     8231         
    360   209    infeasible                       154333.1004     9084         
    415   247    -7617.7555   266                 154333.1004    10412         
    523   265    38519.6322   287                 154333.1004    11016         
    636   346    -2553.2857   210                 154333.1004    11480         
    775   480     1094.9168   206                 154333.1004    11978         
   1365  1099   -44596.5403   209                 154333.1004    12326         
Elapsed time = 35.47 sec. (13456.63 ticks, tree = 9.26 MB, solutions = 0)
   1635  1214  -194914.8275   199                 154333.1004    13408         
   1711  1268    -2553.2857   193                 153313.5624    13120         
   1852  1349    65575.0591   326                 153313.5624    24591         
   2056  1371    39180.0683   255                 153313.5624    29156         
   2320  1366    67311.1336   332                 153313.5624    28865         
   2579  1430    15158.5185   224                 153313.5624    29663         
   2893  1729   -50376.8366    51                 148631.9833    38198         
   3143  1688    infeasible                       148631.9833    41682         
   3374  2479     6072.0261   226                 145456.0891    48219         
   3642  2564      698.6044   179                 145456.0891    48527         
Elapsed time = 54.05 sec. (23032.32 ticks, tree = 24.09 MB, solutions = 0)
   3996  2652   -38087.0928   194                 145456.0891    49237         
   4405  2396     6913.0790   259                 145456.0891    46176         
   4748  1662     8565.9147   236                 145456.0891    42049         
   5091  2040     6681.8590   152                 145456.0891    43958         
   5315  2076    infeasible                       145456.0891    45334         
   5431  2496    19934.6697   265                 145456.0891    49207         
   5442  4307    55114.0005   175                  56859.8171    68786         
   5628    72     4928.2961   118                  54731.2837    69982         
   5873   329     4995.6364   118                  50141.0854    74483         
   6108   391  -191697.0628   128                  50111.2730    75467         
Elapsed time = 103.38 sec. (43496.87 ticks, tree = 3.43 MB, solutions = 0)
   6272   642    -1195.5803   129                  45876.7521    80221         
   6472   685    infeasible                        44599.6843    81029         
   6788   962   -14402.0568   109                  43337.9462    88238         
   7105  1240     6902.7131   116                  38004.3111    95259         
   7423  1410   -72439.3952   100                  34492.0699   101628         
   7700  1586    27950.6391   131                  31759.9208   107851         
   7909  1726   -15197.2841   105                  29267.4867   110642         
   8157  1882   -10062.9306    23                  29267.4867   112925         
   8365  2173   -47461.5907    24                  29267.4867   118581         
   8537  2318    11905.3156   120                  29267.4867   122897         
Elapsed time = 126.28 sec. (53047.82 ticks, tree = 20.12 MB, solutions = 0)
   8741  2356    -3494.2779   103                  29267.4867   123962         
   8959  2470   -71338.3545   121                  29267.4867   127250         
   9149  2590   -43614.3557   102                  29267.4867   130040         
   9357  2822    infeasible                        29267.4867   135579         
   9550  3098   -37019.1274   146                  29267.4867   141939         
   9703  3069    -5063.8760   111                  29267.4867   141019         
   9831  3228     2119.0062   104                  29267.4867   145379         
   9990  3256   -32442.1808    88                  29267.4867   147994         
  10116  3352   -63563.8640   197                  29267.4867   148949         
  10189  3384     5064.2728   153                  29267.4867   151192         
Elapsed time = 157.83 sec. (62617.03 ticks, tree = 30.56 MB, solutions = 0)
  10343  3561   -34978.9111    29                  29267.4867   153251         
  10419  3615     4720.8003   156                  29267.4867   154275         
  10532  3749   -29075.0965   110                  29267.4867   160714         
  10684  3610     -210.6855   120                  29267.4867   159630         
  10877  3871   -30040.5334    73                  29267.4867   164463         
  11049  3736    -9597.8299    97                  29267.4867   163486         
  11183  4021   -14276.0189   103                  29267.4867   167012         
  11367  3844     4885.0087   121                  29267.4867   165846         
  11552  4152    infeasible                        29267.4867   170329         
  11720  4190   -86114.0805   173                  29267.4867   172494         
Elapsed time = 162.80 sec. (72194.37 ticks, tree = 39.57 MB, solutions = 0)
  11817  4246    infeasible                        29267.4867   174968         
  11846  3555    infeasible                        29267.4867   157155         

Cover cuts applied:  30
Implied bound cuts applied:  6
Flow cuts applied:  671
Mixed integer rounding cuts applied:  384
Zero-half cuts applied:  1
Gomory fractional cuts applied:  57

Root node processing (before b&c):
  Real time             =   28.84 sec. (10275.61 ticks)
Parallel b&c, 4 threads:
  Real time             =  133.98 sec. (65893.13 ticks)
  Sync time (average)   =    0.70 sec.
  Wait time (average)   =    0.04 sec.
                          ------------
Total (root+branch&cut) =  162.83 sec. (76168.74 ticks)


MIP - Deterministic time limit exceeded, no integer solution.
Current MIP best bound =  2.4489675634e+04 (gap is infinite)
Solution time =  162.83 sec.  Iterations = 187803  Nodes = 11852 (4715)
Deterministic time = 76168.90 ticks  (467.79 ticks/sec)

CPLEX> CPLEX Error  1217: No solution exists.
No file written.
CPLEX> gap is infinite, so writing 0
Exporting results... 
